10J3M/DAT/10J3MUNA-13.dat
10 3
34.4277 1185.2665
36.1183 1304.5316
48.6002 2361.9794
39.4748 1558.2598
27.662 765.1862
48.68 2369.7424
0.5227 0.2732
33.4733 1120.4618
43.4887 1891.267
29.3727 862.7555
13419.7234