10J3M/SOL/10J3MUNA-13.sol
solution status: optimal solution found
objective value:                     68.6467333333333
x#1#1                                               1 	(obj:0)
x#2#1                               0.611694424566165 	(obj:0)
x#2#2                               0.388305575433836 	(obj:0)
x#3#1                                               1 	(obj:0)
x#4#1                                               1 	(obj:0)
x#5#3                                               1 	(obj:0)
x#6#2                                               1 	(obj:0)
x#7#1                                               1 	(obj:0)
x#8#1                                               1 	(obj:0)
x#9#2                               0.471543667912952 	(obj:0)
x#9#3                               0.528456332087048 	(obj:0)
x#10#1                                              1 	(obj:0)
z                                    68.6467333333333 	(obj:1)
